
n_res = 4;
rcap = [18, 19, 240, 312];
rtype = [1, 1, 2, 2];
n_tasks = 100;
modes =  [{1, 2, 3}, {4, 5, 6}, {7, 8, 9}, {10, 11, 12}, {13, 14, 15}, {16, 17, 18}, {19, 20, 21}, {22, 23, 24}, {25, 26, 27}, {28, 29, 30}, {31, 32, 33}, {34, 35, 36}, {37, 38, 39}, {40, 41, 42}, {43, 44, 45}, {46, 47, 48}, {49, 50, 51}, {52, 53, 54}, {55, 56, 57}, {58, 59, 60}, {61, 62, 63}, {64, 65, 66}, {67, 68, 69}, {70, 71, 72}, {73, 74, 75}, {76, 77, 78}, {79, 80, 81}, {82, 83, 84}, {85, 86, 87}, {88, 89, 90}, {91, 92, 93}, {94, 95, 96}, {97, 98, 99}, {100, 101, 102}, {103, 104, 105}, {106, 107, 108}, {109, 110, 111}, {112, 113, 114}, {115, 116, 117}, {118, 119, 120}, {121, 122, 123}, {124, 125, 126}, {127, 128, 129}, {130, 131, 132}, {133, 134, 135}, {136, 137, 138}, {139, 140, 141}, {142, 143, 144}, {145, 146, 147}, {148, 149, 150}, {151, 152, 153}, {154, 155, 156}, {157, 158, 159}, {160, 161, 162}, {163, 164, 165}, {166, 167, 168}, {169, 170, 171}, {172, 173, 174}, {175, 176, 177}, {178, 179, 180}, {181, 182, 183}, {184, 185, 186}, {187, 188, 189}, {190, 191, 192}, {193, 194, 195}, {196, 197, 198}, {199, 200, 201}, {202, 203, 204}, {205, 206, 207}, {208, 209, 210}, {211, 212, 213}, {214, 215, 216}, {217, 218, 219}, {220, 221, 222}, {223, 224, 225}, {226, 227, 228}, {229, 230, 231}, {232, 233, 234}, {235, 236, 237}, {238, 239, 240}, {241, 242, 243}, {244, 245, 246}, {247, 248, 249}, {250, 251, 252}, {253, 254, 255}, {256, 257, 258}, {259, 260, 261}, {262, 263, 264}, {265, 266, 267}, {268, 269, 270}, {271, 272, 273}, {274, 275, 276}, {277, 278, 279}, {280, 281, 282}, {283, 284, 285}, {286, 287, 288}, {289, 290, 291}, {292, 293, 294}, {295, 296, 297}, {298, 299, 300}];
succ =  [{52, 42, 40, 39, 38, 36, 35, 34, 31, 29, 28, 27, 23, 17}, {52, 42, 40, 38, 37, 36, 34, 32, 31, 30, 29, 28, 24, 23}, {53, 52, 45, 43, 42, 40, 39, 38, 36, 30, 28, 25, 24, 20}, {53, 46, 45, 42, 40, 39, 38, 32, 28, 27, 23, 17}, {54, 53, 52, 47, 45, 43, 42, 40, 39, 38, 36, 35, 32, 27, 19}, {38, 35, 29, 24, 23, 15}, {63, 47, 45, 42, 38, 36, 35, 34, 30, 25, 24}, {52, 47, 40, 36, 31, 30, 29, 20, 19}, {63, 53, 52, 46, 36, 31, 30, 26, 24}, {57, 52, 41, 40, 35, 34, 33, 28, 23}, {46, 43, 40, 39, 31, 27, 24, 23}, {72, 63, 53, 39, 37, 31, 29, 28, 24}, {72, 63, 54, 52, 47, 36, 34, 31, 24}, {72, 70, 65, 60, 59, 57, 53, 51, 50, 49, 45, 42, 40, 38, 36, 29}, {72, 63, 60, 57, 53, 51, 49, 47, 41, 40, 39, 36, 31}, {72, 63, 61, 54, 52, 50, 49, 48, 45, 44, 43, 42, 41, 28}, {72, 69, 58, 30, 24}, {72, 65, 59, 54, 53, 46, 42, 36, 31}, {72, 70, 63, 59, 49, 24}, {74, 72, 68, 67, 65, 61, 60, 59, 56, 54, 50, 49, 48, 46, 41}, {81, 70, 69, 65, 60, 57, 56, 40, 33}, {68, 65, 63, 59, 56, 54, 50, 49, 48, 44, 43, 42}, {85, 74, 72, 71, 70, 69, 68, 67, 65, 63, 62, 61, 58, 56, 55, 54, 50, 49}, {81, 65, 60, 57, 56, 51, 33}, {81, 76, 60, 56, 46, 33}, {85, 72, 67, 65, 61, 60, 58, 56, 54, 49, 40}, {81, 76, 75, 74, 67, 65, 64, 63, 61, 60, 59, 56, 50, 48}, {85, 81, 75, 71, 68, 66, 65, 64, 62, 60, 59, 56, 55, 47}, {74, 73, 68, 64, 61, 56, 54, 48, 44}, {67, 61, 60, 59, 56, 54, 49, 41}, {73, 70, 69, 62, 56, 55, 50, 48, 45}, {86, 85, 76, 75, 74, 72, 70, 64, 61, 60, 44}, {75, 74, 73, 68, 64, 61, 50, 48, 44}, {86, 83, 76, 73, 66, 61, 59, 55, 53, 46}, {80, 74, 72, 67, 66, 65, 64, 61, 59, 56, 55, 48}, {81, 74, 73, 64, 61, 48, 44}, {100, 85, 84, 79, 76, 74, 71, 69, 67, 65, 64, 50}, {100, 86, 85, 80, 79, 74, 73, 71, 69, 68, 67, 61, 55}, {99, 98, 86, 84, 83, 80, 79, 76, 75, 74, 71, 66, 65}, {100, 86, 84, 83, 79, 78, 76, 74, 73, 71, 68, 66}, {99, 86, 85, 84, 81, 80, 79, 71, 70, 66, 64}, {100, 97, 85, 81, 79, 77, 75, 73, 69, 55}, {100, 99, 98, 95, 84, 83, 82, 81, 80, 79, 78, 77, 76, 75, 74}, {100, 97, 80, 79, 77, 67, 66, 62, 55}, {85, 78, 77, 75, 68, 67, 66, 58}, {100, 99, 85, 79, 78, 77, 75, 62, 58}, {100, 99, 93, 86, 80, 79, 78, 77, 74, 67}, {98, 97, 95, 94, 93, 90, 86, 85, 84, 83, 79, 71}, {100, 98, 97, 96, 95, 94, 84, 82, 81, 78, 76, 73}, {99, 98, 97, 93, 86, 80, 78, 77, 66}, {98, 93, 83, 80, 77, 73, 68}, {99, 98, 97, 95, 94, 85, 82, 80, 77, 75, 73}, {100, 99, 93, 82, 79, 78, 74, 71}, {98, 97, 96, 95, 94, 79, 77, 76, 75}, {99, 98, 96, 95, 94, 93, 92, 91, 88, 84, 82, 78}, {96, 95, 93, 91, 89, 79, 77}, {100, 94, 93, 92, 91, 82, 78}, {98, 97, 95, 92, 91, 88, 80}, {100, 98, 96, 94, 90, 87, 77}, {98, 95, 94, 91, 73}, {99, 95, 92, 91, 90, 89, 88, 87}, {98, 94, 93, 92, 91, 88, 82}, {100, 95, 93, 91, 90, 89, 82}, {97, 94, 93, 88, 87, 78}, {93, 87, 78, 77}, {96, 95, 94, 91, 88, 82}, {98, 95, 90, 89, 87, 83}, {99, 97, 95, 94, 91, 82}, {96, 92, 91, 83, 82}, {100, 93, 91, 90, 89, 87}, {96, 91, 87, 77}, {94, 93, 90, 89, 88}, {92, 90, 89, 88}, {97, 94, 91, 87}, {93, 90, 89, 88}, {93, 91, 90}, {92, 88}, {90, 89}, {88, 87}, {96, 87}, {89, 87}, {87}, {88}, {89}, {92}, {87}, {}, {}, {}, {}, {}, {}, {}, {}, {}, {}, {}, {}, {}, {}];
n_opt = 300;
dur = [2, 5, 6, 1, 5, 8, 1, 5, 5, 1, 5, 6, 2, 7, 10, 2, 4, 7, 3, 6, 7, 2, 3, 6, 3, 6, 8, 2, 4, 7, 1, 8, 9, 3, 4, 5, 1, 2, 7, 8, 10, 10, 3, 4, 8, 6, 6, 9, 1, 7, 8, 4, 5, 6, 8, 8, 9, 4, 6, 10, 7, 9, 10, 3, 6, 8, 2, 3, 8, 4, 7, 8, 1, 8, 8, 2, 8, 9, 2, 7, 10, 5, 9, 10, 4, 6, 7, 4, 4, 6, 3, 5, 10, 1, 2, 9, 1, 4, 5, 3, 4, 5, 8, 9, 10, 2, 8, 9, 6, 8, 8, 3, 4, 9, 1, 9, 10, 3, 4, 8, 1, 5, 8, 1, 7, 7, 5, 7, 9, 2, 7, 9, 4, 4, 6, 5, 6, 10, 1, 2, 3, 2, 3, 4, 4, 9, 10, 6, 7, 8, 3, 7, 10, 5, 7, 10, 2, 3, 4, 1, 4, 10, 6, 7, 10, 2, 3, 7, 2, 5, 8, 1, 5, 10, 3, 8, 10, 5, 8, 10, 1, 2, 4, 3, 3, 9, 3, 9, 10, 1, 8, 10, 3, 3, 4, 4, 5, 7, 1, 5, 6, 8, 8, 9, 1, 4, 7, 2, 3, 5, 2, 7, 7, 1, 3, 5, 1, 4, 8, 1, 5, 6, 3, 6, 8, 2, 8, 10, 1, 6, 7, 1, 8, 10, 2, 6, 10, 3, 5, 9, 2, 7, 10, 5, 6, 10, 2, 3, 4, 3, 9, 10, 1, 3, 8, 1, 7, 9, 3, 7, 8, 2, 4, 9, 8, 9, 10, 1, 6, 10, 3, 4, 5, 2, 4, 9, 4, 6, 10, 3, 7, 10, 1, 2, 5, 1, 6, 10, 2, 5, 6, 7, 7, 8, 5, 5, 7, 1, 3, 4];
rreq = [|4, 3, 3, 3, 3, 1, 1, 1, 1, 2, 1, 1, 4, 4, 4, 1, 1, 1, 3, 2, 2, 2, 2, 2, 1, 1, 1, 4, 3, 3, 4, 4, 4, 2, 1, 1, 3, 2, 2, 2, 2, 2, 3, 2, 2, 5, 4, 4, 4, 3, 3, 5, 4, 3, 4, 4, 4, 4, 4, 4, 4, 3, 1, 1, 1, 1, 4, 4, 4, 2, 2, 2, 4, 3, 2, 4, 2, 2, 3, 2, 2, 4, 3, 3, 4, 4, 2, 5, 5, 5, 3, 3, 3, 2, 2, 2, 5, 4, 4, 4, 4, 4, 5, 3, 2, 4, 2, 2, 3, 3, 3, 2, 2, 2, 2, 2, 2, 2, 1, 1, 2, 2, 2, 3, 3, 1, 2, 1, 1, 4, 2, 2, 2, 2, 2, 3, 3, 2, 3, 3, 1, 1, 1, 1, 5, 4, 3, 5, 5, 5, 3, 3, 1, 4, 3, 3, 3, 2, 1, 5, 3, 3, 4, 4, 4, 3, 2, 2, 3, 2, 2, 4, 4, 4, 2, 1, 1, 1, 1, 1, 3, 2, 1, 3, 2, 2, 4, 4, 4, 4, 2, 1, 2, 1, 1, 3, 2, 2, 4, 3, 3, 4, 3, 3, 3, 2, 1, 1, 1, 1, 3, 2, 2, 4, 4, 3, 3, 2, 2, 3, 2, 1, 3, 3, 1, 3, 2, 2, 4, 3, 1, 3, 3, 1, 4, 4, 3, 5, 3, 3, 3, 2, 2, 3, 3, 3, 4, 4, 4, 2, 1, 1, 5, 4, 4, 5, 2, 1, 3, 3, 3, 4, 2, 2, 5, 5, 5, 3, 3, 3, 4, 4, 4, 4, 4, 4, 3, 3, 3, 2, 2, 2, 3, 2, 2, 5, 3, 3, 4, 4, 3, 3, 2, 2, 3, 3, 3, 3, 3, 3
 |3, 2, 2, 3, 3, 3, 2, 2, 2, 5, 3, 3, 2, 2, 2, 3, 3, 2, 3, 3, 2, 4, 4, 3, 1, 1, 1, 4, 3, 3, 4, 2, 1, 4, 3, 2, 4, 3, 3, 3, 3, 3, 1, 1, 1, 5, 4, 2, 5, 3, 3, 2, 2, 2, 2, 2, 2, 1, 1, 1, 5, 4, 4, 4, 4, 4, 3, 3, 3, 3, 2, 1, 3, 2, 1, 5, 4, 4, 1, 1, 1, 4, 3, 1, 5, 4, 3, 5, 5, 5, 2, 2, 2, 2, 1, 1, 1, 1, 1, 3, 2, 2, 1, 1, 1, 5, 4, 3, 3, 2, 2, 4, 4, 4, 5, 3, 2, 5, 3, 3, 4, 2, 1, 2, 2, 2, 4, 2, 2, 1, 1, 1, 4, 4, 2, 3, 2, 2, 4, 4, 4, 3, 2, 2, 5, 5, 5, 3, 3, 2, 5, 3, 2, 3, 3, 3, 3, 1, 1, 4, 4, 3, 2, 2, 2, 4, 2, 1, 5, 4, 4, 2, 1, 1, 3, 2, 2, 2, 2, 2, 4, 4, 3, 3, 2, 1, 3, 2, 2, 5, 4, 4, 1, 1, 1, 3, 3, 3, 5, 4, 4, 4, 4, 4, 3, 3, 1, 5, 4, 3, 4, 4, 4, 4, 3, 2, 2, 2, 2, 4, 4, 4, 4, 4, 4, 4, 3, 3, 3, 2, 2, 5, 5, 5, 3, 2, 2, 2, 2, 1, 4, 2, 2, 5, 4, 3, 1, 1, 1, 4, 3, 3, 1, 1, 1, 5, 3, 2, 5, 4, 2, 4, 4, 4, 2, 2, 1, 3, 1, 1, 3, 3, 3, 3, 2, 2, 4, 3, 3, 4, 3, 3, 5, 3, 2, 2, 1, 1, 4, 3, 2, 5, 5, 5, 4, 3, 2, 4, 3, 1
 |0, 3, 0, 4, 2, 2, 0, 4, 0, 0, 3, 2, 4, 0, 0, 0, 3, 2, 0, 0, 3, 0, 0, 0, 8, 0, 0, 9, 0, 6, 4, 4, 0, 4, 0, 1, 7, 0, 5, 4, 3, 0, 0, 0, 0, 10, 0, 0, 0, 6, 0, 8, 8, 0, 7, 0, 0, 0, 0, 3, 0, 3, 3, 0, 0, 6, 3, 0, 1, 0, 6, 6, 0, 5, 0, 8, 0, 8, 0, 0, 0, 8, 5, 0, 2, 2, 1, 7, 0, 0, 0, 5, 0, 7, 4, 0, 6, 5, 4, 0, 0, 0, 0, 7, 5, 3, 3, 0, 9, 6, 0, 0, 0, 0, 0, 1, 0, 1, 1, 0, 0, 9, 0, 0, 0, 2, 7, 0, 0, 0, 0, 0, 0, 6, 6, 5, 0, 4, 6, 0, 0, 0, 0, 0, 5, 5, 0, 8, 7, 4, 0, 7, 5, 0, 0, 4, 0, 0, 0, 0, 0, 0, 0, 0, 0, 0, 4, 0, 10, 4, 0, 3, 0, 3, 3, 0, 0, 7, 0, 6, 0, 0, 0, 0, 1, 1, 8, 0, 8, 0, 7, 0, 10, 0, 0, 7, 5, 0, 0, 0, 4, 0, 4, 3, 0, 6, 0, 0, 0, 4, 8, 7, 0, 4, 2, 0, 0, 3, 2, 9, 0, 0, 0, 0, 8, 0, 0, 0, 9, 5, 0, 0, 0, 3, 9, 0, 0, 8, 8, 0, 9, 0, 0, 7, 0, 2, 5, 3, 1, 0, 4, 0, 1, 2, 1, 7, 3, 3, 0, 4, 3, 0, 0, 3, 0, 0, 0, 0, 0, 0, 0, 0, 7, 6, 0, 0, 0, 6, 0, 2, 1, 0, 9, 5, 0, 0, 0, 4, 0, 0, 3, 5, 0, 0, 0, 4, 0, 0, 0, 0
 |4, 0, 1, 0, 0, 0, 10, 0, 4, 4, 0, 0, 0, 5, 4, 6, 0, 0, 9, 5, 0, 2, 1, 2, 0, 5, 4, 0, 6, 0, 0, 0, 3, 0, 2, 0, 0, 3, 0, 0, 0, 9, 9, 9, 8, 0, 6, 4, 5, 0, 4, 0, 0, 5, 0, 2, 1, 4, 3, 0, 5, 0, 0, 9, 5, 0, 0, 6, 0, 5, 0, 0, 6, 0, 3, 0, 7, 0, 5, 3, 2, 0, 0, 6, 0, 0, 0, 0, 2, 1, 4, 0, 3, 0, 0, 3, 0, 0, 0, 5, 4, 3, 8, 0, 0, 0, 0, 2, 0, 0, 7, 7, 6, 5, 4, 0, 2, 0, 0, 5, 8, 0, 6, 10, 9, 0, 0, 7, 6, 10, 7, 4, 7, 0, 0, 0, 6, 0, 0, 7, 5, 8, 6, 4, 0, 0, 1, 0, 0, 0, 5, 0, 0, 7, 5, 0, 7, 6, 6, 6, 5, 5, 9, 8, 7, 2, 0, 1, 0, 0, 5, 0, 4, 0, 0, 3, 2, 0, 7, 0, 5, 3, 3, 9, 0, 0, 0, 7, 0, 9, 0, 7, 0, 5, 4, 0, 0, 4, 8, 7, 0, 3, 0, 0, 9, 0, 6, 4, 4, 0, 0, 0, 3, 0, 0, 3, 8, 0, 0, 0, 6, 5, 10, 4, 0, 5, 5, 1, 0, 0, 1, 4, 3, 0, 0, 1, 1, 0, 0, 6, 0, 9, 8, 0, 8, 0, 0, 0, 0, 7, 0, 5, 0, 0, 0, 0, 0, 0, 10, 0, 0, 10, 7, 0, 8, 3, 3, 9, 8, 7, 4, 2, 0, 0, 8, 7, 10, 0, 9, 0, 0, 4, 0, 0, 4, 7, 5, 0, 3, 2, 0, 0, 8, 7, 7, 0, 4, 10, 9, 9|];